0.21 2.24
1.21 2.1
2.42 2.99
3.66 2.83
4.59 2.06
5.89 2.21
0.95 4.01
1.24 4.72
2.35 4.72
3 4.88
4.73 4.76
5.69 4.9
0.64 6.96
1.97 6.6
2.72 6.36
3.76 6.56
4.65 6.32
5.82 6.84
0.72 8.82
1.91 8.82
2.5 8.31
3.18 8.33
4.52 8.67
5.5 8.21
0.93 10.44
1.97 10.42
2.82 10.6
3.11 10.94
4.72 10.08
5.04 10.51
0.34 12.72
1.56 12.74
2.64 12.92
3.37 12.83
4.86 12.72
5.37 12.84
0.85 14.27
1.75 14.94
2.65 14.97
3.07 14.5
4.78 14.95
5.67 14.07
0.25 16.16
1.54 16.74
2.77 16.76
